sat
(:eliminated-applications 2
 :eliminated-vars         1
 :max-memory              18.05
 :memory                  18.05
 :nlsat-propagations      6
 :nlsat-stages            4
 :num-allocs              20991
 :rlimit-count            1817
 :time                    0.00
 :total-time              0.01)
